p edge 50 200
e 1 6
e 1 33
e 1 40
e 1 50
e 2 25
e 2 25
e 2 38
e 2 49
e 3 36
e 3 37
e 3 48
e 3 50
e 4 5
e 4 36
e 4 37
e 4 37
e 5 22
e 5 22
e 5 22
e 5 42
e 6 3
e 6 18
e 6 28
e 6 34
e 7 9
e 7 24
e 7 33
e 7 44
e 8 1
e 8 3
e 8 15
e 8 24
e 9 12
e 9 20
e 9 41
e 9 46
e 10 16
e 10 18
e 10 22
e 10 43
e 11 4
e 11 17
e 11 17
e 11 45
e 12 5
e 12 5
e 12 7
e 12 28
e 13 7
e 13 7
e 13 27
e 13 41
e 14 27
e 14 42
e 14 47
e 14 48
e 15 2
e 15 7
e 15 19
e 15 49
e 16 23
e 16 24
e 16 34
e 16 46
e 17 6
e 17 7
e 17 7
e 17 30
e 18 9
e 18 9
e 18 21
e 18 30
e 19 4
e 19 32
e 19 44
e 19 49
e 20 11
e 20 22
e 20 48
e 20 49
e 21 17
e 21 25
e 21 28
e 21 34
e 22 4
e 22 23
e 22 31
e 22 34
e 23 1
e 23 24
e 23 31
e 23 32
e 24 19
e 24 22
e 24 23
e 24 45
e 25 3
e 25 41
e 25 41
e 25 50
e 26 27
e 26 33
e 26 39
e 26 48
e 27 12
e 27 31
e 27 35
e 27 44
e 28 2
e 28 17
e 28 39
e 28 45
e 29 2
e 29 8
e 29 21
e 29 49
e 30 16
e 30 23
e 30 39
e 30 46
e 31 14
e 31 16
e 31 28
e 31 49
e 32 4
e 32 5
e 32 27
e 32 36
e 33 10
e 33 16
e 33 36
e 33 40
e 34 14
e 34 32
e 34 39
e 34 46
e 35 29
e 35 36
e 35 38
e 35 39
e 36 13
e 36 19
e 36 38
e 36 38
e 37 12
e 37 21
e 37 24
e 37 49
e 38 11
e 38 16
e 38 43
e 38 43
e 39 19
e 39 33
e 39 41
e 39 42
e 40 26
e 40 39
e 40 44
e 40 48
e 41 2
e 41 14
e 41 28
e 41 44
e 42 34
e 42 40
e 42 40
e 42 48
e 43 7
e 43 24
e 43 29
e 43 35
e 44 4
e 44 16
e 44 39
e 44 48
e 45 2
e 45 13
e 45 26
e 45 36
e 46 4
e 46 14
e 46 25
e 46 35
e 47 9
e 47 14
e 47 22
e 47 45
e 48 7
e 48 8
e 48 11
e 48 36
e 49 1
e 49 21
e 49 40
e 49 48
e 50 14
e 50 28
e 50 39
e 50 40
